N = 8;
Capacity = 4;
nbVehicles = 12;
maxVisitsPerCustomer = 2;
ItemsPerCustomer = [5, 4, 8, 8, 4, 6, 5, 8];
maxItemsPerCustomer = 8;
binCapacity = 50;
SizesOfItems = [|
  32, 32, 27, 27, 16, 0, 0, 0
| 32, 32, 13, 10, 0, 0, 0, 0
| 39, 38, 25, 25, 24, 19, 16, 12
| 38, 34, 34, 29, 21, 18, 16, 15
| 36, 35, 31, 16, 0, 0, 0, 0
| 50, 50, 50, 50, 50, 50, 0, 0
| 39, 39, 24, 22, 17, 0, 0, 0
| 39, 37, 33, 33, 33, 32, 12, 12
|];
Distance = [|
  0, 37, 38, 28, 47, 26, 60, 24, 32
| 37, 0, 21, 31, 83, 13, 89, 35, 6
| 38, 21, 0, 46, 75, 26, 75, 22, 24
| 28, 31, 46, 0, 73, 20, 88, 45, 25
| 47, 83, 75, 73, 0, 73, 27, 53, 79
| 26, 13, 26, 20, 73, 0, 82, 31, 7
| 60, 89, 75, 88, 27, 82, 0, 55, 86
| 24, 35, 22, 45, 53, 31, 55, 0, 33
| 32, 6, 24, 25, 79, 7, 86, 33, 0
|];
